(set-logic UFDT)
(declare-datatypes ((nat 0)) (((zero) (s (s0 nat)))))
(declare-fun add (nat nat) nat)
(non-erasing add 2)
(injective add (true true))
(declare-fun leq (nat nat) Bool)
(assert (forall ((y nat)) (= (add zero y) y)))
(assert (forall ((x nat) (y nat)) (= (add (s x) y) (s (add x y)))))
(assert (forall ((y nat)) (leq zero y)))
(assert (forall ((x nat)) (not (leq (s x) zero))))
(assert (forall ((x nat) (y nat)) (= (leq (s x) (s y)) (leq x y))))
(assert (not (forall ((v0 nat) (v1 nat) (v2 nat) (v3 nat) (v4 nat) (v5 nat) (v6 nat) (v7 nat) (v8 nat) (v9 nat)) (= (add (add (add v7 (s v4)) (add (add (add (s (s v3)) (s (add (s v0) v1))) (add v9 (s v1))) (s (add (s v1) (add (s v5) (s v6)))))) (s (s (s (s (add (s v8) v2)))))) (s (s (add (add (add (s v1) (add (s (s (add (s v2) (s (add v4 (s v1)))))) (s v6))) (s (s (s (add (add (s (s (add (s (add v8 (add v7 v0))) v9))) v3) v5))))) v1)))))))
(check-sat)
